letting n =  10
letting blocks =  [[2, 4], [2, 7], [2, 10], [3, 1], [3, 4], [3, 10], [4, 1], [4, 8], [5, 2], [5, 4], [5, 6], [5, 8], [5, 9], [5, 10], [6, 2], [6, 7], [6, 8], [6, 9], [6, 10], [7, 2], [7, 3], [7, 5], [7, 7], [7, 8], [7, 9], [8, 1], [8, 3], [8, 4], [8, 6], [8, 8], [9, 4], [9, 7], [9, 9], [10, 2], [10, 6], [10, 8]]
